c This Formular is generated by mcnf
c
c    horn? no
c    forced? no
c    mixed sat? no
c    clause length = 3
c
p cnf 20  91
-4 -19 -18 0
 4 -18 19 0
3 18 -5 0
-5 -8 -15 0
-20 7 -16 0
10 -13 -7 0
-12 -9 17 0
17 19 5 0
-16 9 15 0
11 -5 -14 0
18 -10 13 0
-3 11 12 0
-6 -17 -8 0
-18 14 1 0
-19 -15 10 0
12 18 -19 0
-8 4 7 0
-8 -9 4 0
7 17 -15 0
12 -7 -14 0
-10 -11 8 0
2 -15 -11 0
9 6 1 0
-11 20 -17 0
9 -15 13 0
12 -7 -17 0
-18 -2 20 0
20 12 4 0
4 0
3 0
18 0
11 0
7 0
2 0
9 0
